LibMLKEM/why3-cvc5/mlkem.adb_162_22_range_check_1.smt2
;; produced by cvc5.drv ;;
(set-logic ALL)
(set-info :smt-lib-version 2.6)
;;; generated by SMT-LIB2 driver
;;; SMT-LIB2 driver: bit-vectors, common part
;;; SMT-LIB2: integer arithmetic
;; "pow2"
(declare-fun pow2 (Int) Int)

(declare-const two_power_size_minus_one Int)

;; "two_power_size_minus_one_val"
(assert (= two_power_size_minus_one (pow2 (- 16 1))))

;; "min"
(define-fun min ((x Int) (y Int)) Int
  (ite (<= x y) x y))

;; "max"
(define-fun max ((x Int) (y Int)) Int
  (ite (<= x y) y x))

;; "Min_r"
(assert (forall ((x Int) (y Int)) (=> (<= y x) (= (min x y) y))))

;; "Max_l"
(assert (forall ((x Int) (y Int)) (=> (<= y x) (= (max x y) x))))

;; "Min_comm"
(assert (forall ((x Int) (y Int)) (= (min x y) (min y x))))

;; "Max_comm"
(assert (forall ((x Int) (y Int)) (= (max x y) (max y x))))

;; "Min_assoc"
(assert
  (forall ((x Int) (y Int) (z Int)) (= (min (min x y) z) (min x (min y z)))))

;; "Max_assoc"
(assert
  (forall ((x Int) (y Int) (z Int)) (= (max (max x y) z) (max x (max y z)))))

(declare-const x (_ BitVec 16))

;; "in_range"
(define-fun in_range ((x1 (_ BitVec 16))) Bool
  (and (bvule #x0000 x1) (bvule x1 #x0D00)))

;; "in_range"
(define-fun in_range1 ((x1 (_ BitVec 16))) Bool
  (and (bvule #x0000 x1) (bvule x1 #x0FFF)))

;; Goal "def'vc"
;; File "mlkem.ads", line 196, characters 0-0
(assert
  (not
  (=>
    (in_range1 x)
    (in_range
      (bvsub x (bvmul #x0D01 ((_ int2bv 16) (ite (ite (bvuge x #x0D01)
                                                   true
                                                   false) 1 0))))))))

(check-sat)
